g3 0 1 0	# problem chem
 11 4 1 0 4	# vars, constraints, objectives, ranges, eqns
 0 1	# nonlinear constraints, objectives
 0 0	# network constraints: nonlinear, linear
 0 11 0	# nonlinear vars in constraints, objectives, both
 0 0 0 1	# linear network variables; functions; arith, flags
 0 0 0 0 0	# discrete variables: binary, integer, nonlinear (b,c,o)
 25 11	# nonzeros in Jacobian, gradients
 0 0	# max name lengths: constraints, variables
 0 0 0 0 0	# common exprs: b,c,o,c1,o1
b
2 0.001
2 0.001
2 0.001
2 0.001
2 0.001
2 0.001
2 0.001
2 0.001
2 0.001
2 0.001
2 0.01
x11
0 0.001
1 0.001
2 0.001
3 0.001
4 0.001
5 0.001
6 0.001
7 0.001
8 0.001
9 0.001
10 0.01
r
4 2
4 1
4 1
4 0
C0
n0
C1
n0
C2
n0
C3
n0
O0 0
o54
10
o2
v0
o0
n-6.05576803624071
o43
o3
v0
v10
o2
v1
o0
n-17.1307680362407
o43
o3
v1
v10
o2
v2
o0
n-34.0207680362407
o43
o3
v2
v10
o2
v3
o0
n-5.88076803624071
o43
o3
v3
v10
o2
v4
o0
n-24.6877680362407
o43
o3
v4
v10
o2
v5
o0
n-14.9527680362407
o43
o3
v5
v10
o2
v6
o0
n-24.0667680362407
o43
o3
v6
v10
o2
v7
o0
n-10.6747680362407
o43
o3
v7
v10
o2
v8
o0
n-26.6287680362407
o43
o3
v8
v10
o2
v9
o0
n-22.1447680362407
o43
o3
v9
v10
k10
2
4
7
9
11
14
17
19
21
24
J0 5
0 1
1 2
2 2
5 1
9 1
J1 4
3 1
4 2
5 1
6 1
J2 5
2 1
6 1
7 1
8 2
9 1
J3 11
0 -1
1 -1
2 -1
3 -1
4 -1
5 -1
6 -1
7 -1
8 -1
9 -1
10 1
G0 11
0 0
1 0
2 0
3 0
4 0
5 0
6 0
7 0
8 0
9 0
10 0
